(set-logic ALL)
(set-option :incremental true)
(set-option :produce-models true)


(declare-fun |stdin0| () String)
(declare-fun |fgets0| () String)
(declare-fun |fgets1| () String)
(declare-fun |ite0| () Int)
(declare-fun |memchr0| () String)
(declare-fun |memchr1| () String)
(declare-fun |fgets2| () String)
(declare-fun |fgets3| () String)

(assert (str.contains (str.substr stdin0 0 199) "\u{a}"))
(assert (= (str.substr stdin0 0 199) (str.++ fgets0 "\u{a}" fgets1)))
(assert (not (str.contains fgets0 "\u{0}")))
(assert (not (>= (str.len fgets0) 200)))
(assert (not (>= (str.to_code (str.substr (str.++ fgets0 "\u{0}") 0 1)) 256)))
(assert (not (>= (str.to_code (str.substr (str.++ fgets0 "\u{0}") 1 1)) 256)))
(assert (not (= (str.to_code (str.substr (str.++ fgets0 "\u{0}") 0 1)) 239)))
(assert (not (>= (str.to_code (str.substr (str.++ fgets0 "\u{0}") 2 1)) 256)))
(assert (>= (str.len fgets0) 1))
(assert (>= (str.len fgets0) 1))
(assert (not (>= (str.to_code (str.substr fgets0 (+ (- 1) (str.len fgets0)) 1)) 256)))
(assert (not (= (str.to_code (str.substr fgets0 (+ (- 1) (str.len fgets0)) 1)) 32)))
(assert (not (= (str.to_code (str.substr fgets0 (+ (- 1) (str.len fgets0)) 1)) 13)))
(assert (not (= (str.to_code (str.substr fgets0 (+ (- 1) (str.len fgets0)) 1)) 12)))
(assert (not (= (str.to_code (str.substr fgets0 (+ (- 1) (str.len fgets0)) 1)) 11)))
(assert (= (str.to_code (str.substr fgets0 (+ (- 1) (str.len fgets0)) 1)) 10))
(assert (>= (str.len fgets0) 1))
(assert (not (>= (str.len fgets0) 201)))
(assert (>= (str.len fgets0) 2))
(assert (>= (str.len fgets0) 2))
(assert (not (>= (str.to_code (str.substr fgets0 (+ (- 2) (str.len fgets0)) 1)) 256)))
(assert (not (= (str.to_code (str.substr fgets0 (+ (- 2) (str.len fgets0)) 1)) 32)))
(assert (not (= (str.to_code (str.substr fgets0 (+ (- 2) (str.len fgets0)) 1)) 13)))
(assert (not (= (str.to_code (str.substr fgets0 (+ (- 2) (str.len fgets0)) 1)) 12)))
(assert (not (= (str.to_code (str.substr fgets0 (+ (- 2) (str.len fgets0)) 1)) 11)))
(assert (not (= (str.to_code (str.substr fgets0 (+ (- 2) (str.len fgets0)) 1)) 10)))
(assert (not (= (str.to_code (str.substr fgets0 (+ (- 2) (str.len fgets0)) 1)) 9)))
(assert (not (>= (str.to_code (str.substr fgets0 0 1)) 256)))
(assert (not (= (str.to_code (str.substr fgets0 0 1)) 9)))
(assert (not (= (str.to_code (str.substr fgets0 0 1)) 32)))
(assert (not (= (str.to_code (str.substr fgets0 0 1)) 13)))
(assert (not (= (str.to_code (str.substr fgets0 0 1)) 12)))
(assert (not (= (str.to_code (str.substr fgets0 0 1)) 11)))
(assert (not (= (str.to_code (str.substr fgets0 0 1)) 10)))
(assert (= ite0 (ite (>= (str.to_code (str.substr fgets0 0 1)) 128) (+ 4294967040 (str.to_code (str.substr fgets0 0 1))) (str.to_code (str.substr fgets0 0 1)))))
(assert (str.contains ";#\u{0}" (str.from_code (+ ite0 (* (- 256) (div_total ite0 256))))))
(assert (= ";#\u{0}" (str.++ memchr0 (str.from_code (+ ite0 (* (- 256) (div_total ite0 256)))) memchr1)))
(assert (not (= (str.len memchr0) (- 106545779282009))))
(assert (str.contains (str.substr stdin0 (+ 1 (str.len fgets0)) 199) "\u{a}"))
(assert (= (str.substr stdin0 (+ 1 (str.len fgets0)) 199) (str.++ fgets2 "\u{a}" fgets3)))
(assert (not (str.contains fgets2 "\u{0}")))
(assert (not (>= (str.len fgets2) 200)))
(assert (not (>= (str.to_code (str.substr (str.++ fgets2 "\u{0}") 0 1)) 256)))
(assert (not (>= (str.to_code (str.substr (str.++ fgets2 "\u{0}" (str.substr (str.++ (str.substr fgets0 0 (+ (- 1) (str.len fgets0))) "\u{0}\u{0}") (+ 1 (str.len fgets2)) (+ 199 (* (- 1) (str.len fgets2))))) 1 1)) 256)))
(assert (not (>= (str.to_code (str.substr (str.++ fgets2 "\u{0}" (str.substr (str.++ (str.substr fgets0 0 (+ (- 1) (str.len fgets0))) "\u{0}\u{0}") (+ 1 (str.len fgets2)) (+ 199 (* (- 1) (str.len fgets2))))) 2 1)) 256)))
(assert (>= (str.len fgets2) 1))
(assert (>= (str.len fgets2) 1))
(assert (not (>= (str.to_code (str.substr fgets2 (+ (- 1) (str.len fgets2)) 1)) 256)))
(assert (not (= (str.to_code (str.substr fgets2 (+ (- 1) (str.len fgets2)) 1)) 32)))
(assert (not (= (str.to_code (str.substr fgets2 (+ (- 1) (str.len fgets2)) 1)) 13)))
(assert (not (= (str.to_code (str.substr fgets2 (+ (- 1) (str.len fgets2)) 1)) 12)))
(assert (not (= (str.to_code (str.substr fgets2 (+ (- 1) (str.len fgets2)) 1)) 11)))
(assert (= (str.to_code (str.substr fgets2 (+ (- 1) (str.len fgets2)) 1)) 10))

(check-sat)
